(set-logic QF_S)
(declare-fun V19 () String )
(declare-fun V34 () String )
(declare-fun V8 () String )
(declare-fun V4 () String )
(declare-fun V1 () String )
(declare-fun V13 () String )
(declare-fun V22 () String )
(declare-fun V24 () String )
(declare-fun V14 () String )
(declare-fun V3 () String )
(declare-fun V20 () String )
(declare-fun V29 () String )
(declare-fun V5 () String )
(declare-fun V21 () String )
(declare-fun V6 () String )
(declare-fun V30 () String )
(declare-fun V31 () String )
(declare-fun V32 () String )
(declare-fun V12 () String )
(declare-fun V0 () String )
(declare-fun V9 () String )
(declare-fun V16 () String )
(declare-fun V28 () String )
(declare-fun V33 () String )
(declare-fun V10 () String )
(declare-fun V7 () String )
(declare-fun V27 () String )
(declare-fun V25 () String )
(declare-fun V23 () String )
(declare-fun V26 () String )
(declare-fun V18 () String )
(declare-fun V11 () String )
(declare-fun V35 () String )
(declare-fun V2 () String )
(declare-fun V15 () String )
(declare-fun V17 () String )
(assert (= "/" V0 ) )
(assert (= ":" V6 ) )
(assert (= "O" V5 ) )
(assert (= V2 (str.++ (str.++ V29 "@" ) V30 ) ) )
(assert (= V2 (str.++ (str.++ V7 V8 ) V9 ) ) )
(assert (= V2 (str.++ (str.++ V13 V14 ) V15 ) ) )
(assert (= V14 (str.++ (str.++ V22 V23 ) V24 ) ) )
(assert (= V14 (str.++ (str.++ V27 "O" ) V28 ) ) )
(assert (= V14 (str.++ (str.++ V16 V17 ) V18 ) ) )
(assert (= V17 (str.++ (str.++ V25 "O" ) V26 ) ) )
(assert (= V4 (str.++ (str.++ V19 V20 ) V21 ) ) )
(assert (= V4 (str.++ (str.++ V31 "/" ) V32 ) ) )
(assert (= V4 (str.++ (str.++ V1 V2 ) V3 ) ) )
(assert (= V12 (str.++ (str.++ V10 V4 ) V11 ) ) )
(assert (= V12 (str.++ (str.++ V34 "://" ) V35 ) ) )
(assert (= V12 (str.++ "mongodb://" V33 ) ) )
( check-sat )
